data;

set TASKS := E1 E2 E3 E4 E5 E6 E7 E8 E9 E10 E11 E12 E13 E14 E15 E16 E17 E18 E19 E20 E21;
set WORKSTATIONS := 1 2 3 4 5 6 7 8 9 10 11 12 13 14 15 16 17 18 19 20 21 22 23 24;

set PRECEDENCE := E1,E2
E1,E3
E2,E21
E3,E4
E4,E5
E4,E21
E5,E6
E5,E7
E6,E8
E7,E8
E7,E14
E8,E9
E9,E10
E9,E11
E9,E12
E9,E13
E10,E15
E11,E15
E12,E15
E13,E17
E13,E18
E14,E19
E15,E16
E15,E18
E16,E17
E17,E20
E18,E19;

param t:= E1	4
	  E2	3
	  E3	9
	  E4	5
	  E5	9
	  E6	4
	  E7	8
	  E8	7
	  E9	5
	  E10	1
	  E11	3
	  E12	1
	  E13	5
	  E14	3
	  E15	5
	  E16	3
	  E17	13
	  E18	5
	  E19	2
	  E20	3
	  E21	7;


param c:= 26;
end;
